1	0	
2	38	
3	51	
4	73	
5	70	
6	58	
7	54	
8	1	
9	98	
10	62	
11	98	
12	25	
13	86	
14	46	
15	27	
16	17	
17	97	
18	74	
19	81	
20	62	
21	59	
22	23	
23	62	
24	66	
25	35	
26	53	
27	18	
28	87	
29	32	
30	4	
31	61	
32	95	
33	23	
34	15	
35	5	
36	53	
37	97	
38	70	
39	32	
40	27	
41	42	
42	67	
43	76	
44	15	
45	39	
46	14	
47	43	
48	11	
49	93	
50	53	
51	44	
52	80	
53	87	
54	97	
55	67	
56	72	
57	50	
58	8	
59	58	
60	55	
61	67	
62	89	
63	38	
64	65	
65	3	
66	5	
67	46	
68	100	
69	52	
70	28	
71	96	
72	18	
73	16	
74	7	
75	73	
76	76	
77	6	
78	64	
79	39	
80	86	
81	70	
82	14	
83	83	
84	96	
85	43	
86	12	
87	73	
88	2	
89	21	
90	18	
91	55	
92	75	
93	68	
94	100	
95	61	
96	24	
97	40	
98	48	
99	51	
100	78	
101	35
